TYPE : Vertex Cover
DIMENSION: 23
EDGE_DATA_SECTION:
0 3
0 9
1 2
1 7
1 13
1 21
2 7
2 9
2 10
2 11
2 20
3 7
3 17
3 19
4 10
4 11
5 18
5 21
6 10
6 14
6 15
6 18
6 19
7 11
7 15
7 17
7 19
8 10
9 11
9 14
9 20
10 19
10 20
11 14
11 18
11 19
11 20
11 21
11 22
12 19
12 20
13 18
14 17
17 18
19 20
-1
VERTEX_DEGREE:
2.0 4.0 6.0 4.0 2.0 2.0 5.0 7.0 1.0 5.0 6.0 10.0 2.0 2.0 4.0 2.0 0.0 4.0 5.0 7.0 6.0 3.0 1.0
VERTEX_COVER:
1 3 6 7 9 10 11 17 18 19 20 21
EOF
